c WARNING: for repeatability, setting FPU to use double precision
d VARIABLES            71486        
d CONSTRAINTS          290003       
c ============================[ Problem Statistics ]=============================
c |                                                                             |
c |  Number of variables:         71486                                         |
c |  Number of clauses:          290003                                         |
c |  Parse time:                   0.05 s                                       |
c |                                                                             |
c ============================[ Search Statistics ]==============================
c | Conflicts |          ORIGINAL         |          LEARNT          | Progress |
c |           |    Vars  Clauses Literals |    Limit  Clauses Lit/Cl |          |
c ===============================================================================
c |       100 |   53433   243961   595129 |    89452      100     40 | 25.254 % |
c |       250 |   53433   243961   595129 |    98397      250     30 | 25.254 % |
c |       475 |   53433   243961   595129 |   108237      475     38 | 25.254 % |
c |       812 |   53433   243961   595129 |   119061      812     48 | 25.254 % |
c |      1318 |   53433   243961   595129 |   130967     1318    108 | 25.254 % |
c |      2077 |   53433   243961   595129 |   144063     2077     99 | 25.254 % |
c |      3216 |   53433   243961   595129 |   158470     3216    122 | 25.254 % |
c |      4924 |   53433   243961   595129 |   174317     4924    116 | 25.254 % |
c |      7486 |   53433   243961   595129 |   191749     7486    113 | 25.254 % |
c |     11330 |   53433   243961   595129 |   210924    11330    119 | 25.254 % |
c |     17096 |   53433   243961   595129 |   232016    17096    115 | 25.254 % |
c |     25745 |   53433   243961   595129 |   255218    25745    116 | 25.254 % |
c |     38719 |   53433   243961   595129 |   280739    38719    123 | 25.254 % |
c |     58180 |   53433   243961   595129 |   308813    58180    121 | 25.254 % |
c |     87372 |   53433   243961   595129 |   339695    87372    124 | 25.254 % |
c |    131161 |   53433   243961   595129 |   373664   131161    127 | 25.254 % |
c |    196845 |   53433   243961   595129 |   411031   196845    146 | 25.254 % |
c |    295371 |   53433   243961   595129 |   452134   295371    157 | 25.254 % |
c |    443160 |   53433   243961   595129 |   497347   443160    171 | 25.254 % |
c |    664843 |   53433   243961   595129 |   547082   174290    150 | 25.254 % |
c |    997368 |   53433   243961   595129 |   601790   506815    147 | 25.254 % |
c |   1496156 |   53433   243961   595129 |   661969   387077    182 | 25.254 % |
c |   2244338 |   53433   243961   595129 |   728166   483467    195 | 25.254 % |
c |   3366612 |   53433   243961   595129 |   800983   170701    145 | 25.254 % |
c ===============================================================================
c restarts              : 6142
c conflicts             : 3552951        (1986 /sec)
c decisions             : 9537095        (0.00 % random) (5330 /sec)
c propagations          : 3648254695     (2038801 /sec)
c conflict literals     : 703076705      (28.57 % deleted)
d RESTARTS             6142
d FAILURES             3552951      
d NODES                9537095      
d BACKTRACKS           9537095      
d PROPAGATIONS         3648254695   
d NOGOODSIZE           197.89 
d MEMORY               1030.00 
d TIME                 1789.41 

s UNKNOWN
